6 40 4 10
14 18 8 10 8 4 20 13 20 4 13 20 3 18 13 16 12 19 16 13 15 16 4 14 9 5 15 11 10 15 19 20 16 17 18 3 18 7 19 5 
1.76 7.04 0.86 6.98 5.05 1.33 5.47 2.87 6.32 0.46 3.34 1.27 3.91 4.81 6.41 7.38 2 5.01 7.39 6.78 4.1 3.74 5.19 6.2 2.91 0.28 4.33 2.74 6.73 5.39 4.9 1.25 5.36 0.29 1.73 7.04 4 1.33 0.53 1.54 
3.87 4.57 2.16 0.94 2.26 3.89 3.2 2.79 4.92 1 0.87 1.07 7.4 5.11 2.01 2.13 4.85 0.91 7.83 1.23 1.1 5.39 5.68 6.99 2.48 3.24 6.42 3.64 4.22 2.66 4.29 4.32 3.17 4.16 1.31 2.17 7.59 3.68 6.48 2.59 
6.6 1.28 4.82 2.32 5.14 2.04 1.03 4.61 7.94 2.93 0.01 4.99 2.61 6.99 7.67 2.65 6.16 6.15 6.35 1.73 3.98 4.84 2.46 5.33 3.39 7.96 7.67 6.3 3.32 5.26 0.66 4.29 4.05 7.88 5.22 4.24 0.78 0.62 5 2.2 
1.2 5.71 3.86 2.86 4.93 5.94 6.44 1.96 3.22 0.96 6.43 2.56 4.67 6.69 0.07 5.82 0.88 0.24 1.92 5.13 6.18 5.54 5.78 6.03 7.82 7.13 4.28 5.6 7.62 1.52 0.73 4.61 0.36 6.48 4.3 0.54 7.32 0.59 1.72 7.14 
4 4 4 4 4 4 4 4 4 4 4 4 4 4 4 4 4 4 4 4 4 4 4 4 4 4 4 4 4 4 4 4 4 4 4 4 4 4 4 4 
4.38 2.46 6.54 2.9 1.87 2.79 1.76 7.57 1.73 3.9 2.57 1.53 5.33 1.19 5.04 7 3.92 3.72 6.59 0.22 5.51 3.3 6.15 4.45 7.96 3.11 2.24 2.1 4.14 3.8 2.58 0.71 3.35 1.48 2.78 0.02 7.06 3.16 0.52 4.3 
1 1 1 1 1 1 1 1 1 1 1 1 1 1 1 1 1 1 1 1 1 1 1 1 1 1 1 1 1 1 1 1 1 1 1 1 1 1 1 1 
1 1 1 1 1 1 1 1 1 1 1 1 1 1 1 1 1 1 1 1 1 1 1 1 1 1 1 1 1 1 1 1 1 1 1 1 1 1 1 1 
1 1 1 1 1 1 1 1 1 1 1 1 1 1 1 1 1 1 1 1 1 1 1 1 1 1 1 1 1 1 1 1 1 1 1 1 1 1 1 1 
1 1 1 1 1 1 1 1 1 1 1 1 1 1 1 1 1 1 1 1 1 1 1 1 1 1 1 1 1 1 1 1 1 1 1 1 1 1 1 1 
1 1 1 1 1 1 1 1 1 1 1 1 1 1 1 1 1 1 1 1 1 1 1 1 1 1 1 1 1 1 1 1 1 1 1 1 1 1 1 1 
1 1 1 1 1 1 1 1 1 1 1 1 1 1 1 1 1 1 1 1 1 1 1 1 1 1 1 1 1 1 1 1 1 1 1 1 1 1 1 1 
0.01 0.01 0.01 0.01 0.01 0.01 0.01 0.01 0.01 0.01 0.01 0.01 0.01 0.01 0.01 0.01 0.01 0.01 0.01 0.01 0.01 0.01 0.01 0.01 0.01 0.01 0.01 0.01 0.01 0.01 0.01 0.01 0.01 0.01 0.01 0.01 0.01 0.01 0.01 0.01 
0.02 0.02 0.02 0.02 0.02 0.02 0.02 0.02 0.02 0.02 0.02 0.02 0.02 0.02 0.02 0.02 0.02 0.02 0.02 0.02 0.02 0.02 0.02 0.02 0.02 0.02 0.02 0.02 0.02 0.02 0.02 0.02 0.02 0.02 0.02 0.02 0.02 0.02 0.02 0.02 
0.03 0.03 0.03 0.03 0.03 0.03 0.03 0.03 0.03 0.03 0.03 0.03 0.03 0.03 0.03 0.03 0.03 0.03 0.03 0.03 0.03 0.03 0.03 0.03 0.03 0.03 0.03 0.03 0.03 0.03 0.03 0.03 0.03 0.03 0.03 0.03 0.03 0.03 0.03 0.03 
0.04 0.04 0.04 0.04 0.04 0.04 0.04 0.04 0.04 0.04 0.04 0.04 0.04 0.04 0.04 0.04 0.04 0.04 0.04 0.04 0.04 0.04 0.04 0.04 0.04 0.04 0.04 0.04 0.04 0.04 0.04 0.04 0.04 0.04 0.04 0.04 0.04 0.04 0.04 0.04 
0.05 0.05 0.05 0.05 0.05 0.05 0.05 0.05 0.05 0.05 0.05 0.05 0.05 0.05 0.05 0.05 0.05 0.05 0.05 0.05 0.05 0.05 0.05 0.05 0.05 0.05 0.05 0.05 0.05 0.05 0.05 0.05 0.05 0.05 0.05 0.05 0.05 0.05 0.05 0.05 
1 1 1 1 1 1 1 1 1 1 1 1 1 1 1 1 1 1 1 1 1 1 1 1 1 1 1 1 1 1 1 1 1 1 1 1 1 1 1 1 
